Selected objective sense:  MINIMIZE
Selected objective  name:  OBJ
Selected RHS        name:  RHS1
Selected bound      name:  BND1
CPXPARAM_Preprocessing_Presolve                  0
CPXPARAM_LPMethod                                4
CPXPARAM_Threads                                 1
CPXPARAM_SolutionType                            2
CPXPARAM_TimeLimit                               3600
Tried aggregator 0 times.
DUAL formed by presolve
Reduced presolve eliminated 1136 rows and 1184 columns.
Reduced LP has 56232 rows, 15296 columns, and 1271273 nonzeros.
Presolve time = 0.32 sec. (286.08 ticks)
Parallel mode: none, using 1 thread for barrier

***NOTE: Found 24 dense columns.

Number of nonzeros in lower triangle of A*A' = 89302
Using Approximate Minimum Degree ordering
Total time for automatic ordering = 0.02 sec. (6.93 ticks)
Summary statistics for Cholesky factor:
  Rows in Factor            = 56256
  Integer space required    = 402620
  Total non-zeros in factor = 1425634
  Total FP ops to factor    = 36655948
 Itn      Primal Obj        Dual Obj  Prim Inf Upper Inf  Dual Inf Inf Ratio
   0  -2.3584592e+07   1.6770924e+08  5.61e+05  0.00e+00  5.63e+07  1.00e+00
   1  -9.8062594e+06   1.8566406e+08  5.39e+05  4.08e-13  5.01e+07  5.51e-04
   2  -3.4467135e+07   5.4027827e+07  1.54e+04  2.07e-12  2.02e+07  1.33e-03
   3  -1.7924098e+07   3.0578018e+06  6.76e+03  3.44e-12  2.83e+06  1.84e-02
   4  -3.3419159e+06   3.0971837e+05  1.16e+03  1.46e-12  6.03e+05  3.44e-02
   5  -1.8181418e+06   1.9208279e+05  6.37e+02  1.14e-12  3.35e+05  4.34e-02
   6  -5.5492022e+05   2.8587450e+04  1.88e+02  2.78e-12  8.51e+04  5.62e-01
   7  -6.0315947e+04   2.3980008e+04  2.72e+01  2.29e-12  6.67e+03  2.40e+00
   8   1.1674582e+04   2.3834046e+04  3.93e+00  3.08e-12  5.96e+02  1.09e+01
   9   1.8947581e+04   2.3653457e+04  1.51e+00  2.42e-12  2.90e+02  1.75e+01
  10   2.2363725e+04   2.3478907e+04  3.33e-01  2.85e-12  1.33e+02  3.55e+01
  11   2.2858845e+04   2.3361431e+04  1.42e-01  2.41e-12  7.14e+01  6.99e+01
  12   2.3035603e+04   2.3296882e+04  6.75e-02  3.73e-12  4.35e+01  1.23e+02
  13   2.3103250e+04   2.3266455e+04  4.01e-02  1.32e-12  2.95e+01  1.95e+02
  14   2.3151890e+04   2.3249577e+04  1.98e-02  2.19e-12  2.21e+01  2.73e+02
  15   2.3179922e+04   2.3234036e+04  7.03e-03  3.94e-12  1.58e+01  4.09e+02
  16   2.3188600e+04   2.3225207e+04  2.73e-03  1.10e-12  1.23e+01  5.53e+02
  17   2.3192375e+04   2.3216757e+04  1.34e-03  8.77e-13  8.73e+00  8.10e+02
  18   2.3194683e+04   2.3213688e+04  3.21e-04  1.31e-12  7.48e+00  9.78e+02
  19   2.3195233e+04   2.3211323e+04  1.11e-04  6.57e-13  6.51e+00  1.16e+03
  20   2.3196307e+04   2.3203315e+04  4.62e-05  2.85e-12  2.85e+00  2.77e+03
  21   2.3196883e+04   2.3201639e+04  1.43e-05  1.75e-12  2.08e+00  3.89e+03
  22   2.3197028e+04   2.3201146e+04  5.85e-06  6.57e-13  1.85e+00  4.42e+03
  23   2.3197049e+04   2.3200116e+04  2.53e-06  1.97e-12  1.38e+00  6.17e+03
  24   2.3197034e+04   2.3199800e+04  1.01e-06  2.19e-12  1.24e+00  7.05e+03
  25   2.3197040e+04   2.3199663e+04  8.35e-07  3.29e-12  1.18e+00  7.51e+03
  26   2.3197093e+04   2.3199456e+04  5.71e-07  5.26e-12  1.08e+00  8.26e+03
  27   2.3197122e+04   2.3198417e+04  3.09e-07  3.07e-12  5.92e-01  1.70e+04
  28   2.3197183e+04   2.3198107e+04  1.85e-07  3.51e-12  4.34e-01  2.35e+04
  29   2.3197205e+04   2.3197882e+04  9.91e-08  2.41e-12  3.25e-01  3.38e+04
  30   2.3197215e+04   2.3197616e+04  1.42e-07  6.57e-13  1.92e-01  6.61e+04
  31   2.3197236e+04   2.3197471e+04  6.29e-06  1.10e-12  1.12e-01  1.18e+05
  32   2.3197252e+04   2.3197391e+04  1.72e-05  1.32e-12  6.82e-02  2.12e+05
  33   2.3197258e+04   2.3197312e+04  2.77e-05  4.83e-12  2.28e-02  7.28e+05
  34   2.3197263e+04   2.3197288e+04  1.86e-04  1.32e-12  8.27e-03  2.28e+06
  35   2.3197266e+04   2.3197280e+04  7.78e-04  3.55e-12  2.62e-03  6.99e+06
  36   2.3197268e+04   2.3197278e+04  7.85e-04  2.88e-12  1.72e-03  9.53e+06
  37   2.3197271e+04   2.3197278e+04  1.25e-03  1.22e-12  1.16e-03  1.24e+07
  38   2.3197272e+04   2.3197277e+04  1.35e-03  1.34e-12  8.40e-04  1.62e+07
  39   2.3197273e+04   2.3197276e+04  1.31e-03  1.45e-12  3.88e-04  3.15e+07
  40   2.3197274e+04   2.3197275e+04  1.71e-03  8.94e-13  9.98e-05  8.82e+07
  41   2.3197274e+04   2.3197275e+04  1.97e-03  4.47e-13  6.19e-05  1.15e+08
  42   2.3197274e+04   2.3197275e+04  2.17e-03  1.01e-12  3.64e-05  1.68e+08
Barrier time = 4.11 sec. (4350.00 ticks)

Total time on 1 threads = 4.11 sec. (4350.00 ticks)
Solve time: 4.106919222
Barrier iterations: 42
